NAME : X-n280-k17
COMMENT : "Generated by Uchoa, Pecin, Pessoa, Poggi, Subramanian, and Vidal (2013)"
TYPE : CVRP
DIMENSION : 280
EDGE_WEIGHT_TYPE : EUC_2D
CAPACITY : 192
NODE_COORD_SECTION
1 0 0
2 909 919
3 878 721
4 969 85
5 591 195
6 955 148
7 587 903
8 994 792
9 625 129
10 544 703
11 461 167
12 37 644
13 615 22
14 773 788
15 384 364
16 51 291
17 109 732
18 570 124
19 692 985
20 62 150
21 358 5
22 188 450
23 674 658
24 676 904
25 815 984
26 710 16
27 74 658
28 576 1000
29 636 695
30 547 92
31 587 397
32 26 150
33 182 561
34 938 462
35 362 928
36 366 835
37 516 892
38 448 923
39 501 445
40 513 799
41 905 388
42 474 791
43 560 782
44 465 552
45 315 645
46 738 396
47 45 915
48 797 871
49 922 643
50 793 586
51 921 458
52 160 295
53 598 257
54 516 221
55 99 169
56 788 634
57 425 751
58 616 680
59 949 444
60 987 459
61 182 279
62 127 354
63 791 822
64 645 609
65 857 386
66 917 154
67 398 480
68 729 688
69 134 510
70 172 2
71 499 737
72 780 565
73 908 477
74 917 341
75 272 553
76 421 876
77 770 2
78 497 623
79 853 27
80 853 521
81 519 196
82 90 822
83 827 901
84 350 168
85 656 56
86 199 924
87 732 55
88 772 748
89 884 973
90 158 430
91 563 13
92 50 959
93 609 223
94 628 860
95 264 436
96 699 764
97 441 479
98 95 246
99 236 627
100 307 893
101 695 302
102 378 639
103 830 30
104 44 339
105 885 644
106 122 603
107 850 732
108 155 865
109 230 346
110 300 719
111 55 954
112 467 494
113 153 641
114 713 82
115 659 564
116 881 18
117 781 654
118 490 806
119 823 569
120 878 496
121 441 898
122 589 516
123 165 614
124 17 749
125 164 778
126 296 858
127 258 488
128 437 866
129 187 88
130 725 988
131 125 619
132 352 701
133 447 517
134 316 80
135 743 575
136 555 373
137 84 140
138 341 827
139 541 567
140 919 768
141 945 924
142 397 932
143 905 944
144 892 37
145 74 227
146 911 617
147 668 697
148 1 96
149 223 299
150 637 118
151 622 958
152 356 127
153 347 777
154 157 190
155 8 497
156 138 78
157 100 192
158 384 598
159 23 228
160 110 163
161 345 464
162 53 628
163 316 705
164 112 361
165 642 405
166 235 578
167 489 621
168 563 916
169 759 215
170 822 262
171 597 310
172 960 837
173 164 988
174 37 513
175 648 247
176 375 402
177 531 205
178 935 676
179 103 549
180 964 651
181 233 241
182 891 112
183 378 472
184 457 893
185 852 861
186 113 701
187 340 913
188 662 198
189 667 718
190 140 332
191 809 908
192 968 908
193 163 857
194 333 418
195 59 136
196 839 123
197 529 215
198 385 380
199 319 417
200 318 216
201 156 119
202 816 160
203 267 210
204 528 320
205 138 787
206 473 713
207 537 114
208 168 838
209 774 825
210 32 510
211 216 372
212 16 935
213 60 733
214 500 37
215 343 363
216 429 41
217 205 398
218 708 298
219 411 109
220 840 359
221 112 603
222 816 310
223 865 775
224 259 348
225 893 516
226 814 607
227 605 162
228 781 239
229 359 199
230 16 739
231 482 214
232 70 526
233 528 103
234 572 770
235 802 517
236 876 469
237 118 571
238 952 781
239 823 795
240 522 595
241 52 336
242 456 367
243 255 413
244 410 194
245 956 21
246 717 142
247 766 880
248 524 825
249 657 640
250 189 232
251 471 339
252 920 809
253 688 98
254 660 781
255 441 81
256 236 735
257 784 692
258 743 446
259 201 32
260 188 957
261 381 605
262 380 904
263 227 263
264 69 94
265 123 416
266 341 341
267 450 482
268 251 533
269 352 591
270 724 967
271 753 539
272 684 924
273 617 989
274 455 500
275 472 926
276 395 683
277 167 357
278 789 678
279 897 272
280 991 492
PICKUP_AND_DELIVERY_SECTION
1 0 0 1000000000 0 0 0
2 0 0 1000000000 0 0 92
3 0 0 1000000000 0 0 88
4 0 0 1000000000 0 0 93
5 0 0 1000000000 0 90 0
6 0 0 1000000000 0 0 73
7 0 0 1000000000 0 0 100
8 0 0 1000000000 0 0 53
9 0 0 1000000000 0 66 0
10 0 0 1000000000 0 0 82
11 0 0 1000000000 0 0 59
12 0 0 1000000000 0 0 100
13 0 0 1000000000 0 76 0
14 0 0 1000000000 0 0 84
15 0 0 1000000000 0 0 56
16 0 0 1000000000 0 0 91
17 0 0 1000000000 0 58 0
18 0 0 1000000000 0 0 65
19 0 0 1000000000 0 0 56
20 0 0 1000000000 0 0 68
21 0 0 1000000000 0 88 0
22 0 0 1000000000 0 0 54
23 0 0 1000000000 0 0 76
24 0 0 1000000000 0 0 80
25 0 0 1000000000 0 53 0
26 0 0 1000000000 0 0 1
27 0 0 1000000000 0 0 2
28 0 0 1000000000 0 0 2
29 0 0 1000000000 0 7 0
30 0 0 1000000000 0 0 10
31 0 0 1000000000 0 0 9
32 0 0 1000000000 0 0 8
33 0 0 1000000000 0 3 0
34 0 0 1000000000 0 0 3
35 0 0 1000000000 0 0 2
36 0 0 1000000000 0 0 9
37 0 0 1000000000 0 6 0
38 0 0 1000000000 0 0 10
39 0 0 1000000000 0 0 3
40 0 0 1000000000 0 0 1
41 0 0 1000000000 0 4 0
42 0 0 1000000000 0 0 6
43 0 0 1000000000 0 0 1
44 0 0 1000000000 0 0 4
45 0 0 1000000000 0 3 0
46 0 0 1000000000 0 0 7
47 0 0 1000000000 0 0 7
48 0 0 1000000000 0 0 2
49 0 0 1000000000 0 1 0
50 0 0 1000000000 0 0 1
51 0 0 1000000000 0 0 4
52 0 0 1000000000 0 0 4
53 0 0 1000000000 0 5 0
54 0 0 1000000000 0 0 4
55 0 0 1000000000 0 0 7
56 0 0 1000000000 0 0 3
57 0 0 1000000000 0 3 0
58 0 0 1000000000 0 0 8
59 0 0 1000000000 0 0 6
60 0 0 1000000000 0 0 4
61 0 0 1000000000 0 4 0
62 0 0 1000000000 0 0 2
63 0 0 1000000000 0 0 1
64 0 0 1000000000 0 0 7
65 0 0 1000000000 0 5 0
66 0 0 1000000000 0 0 1
67 0 0 1000000000 0 0 6
68 0 0 1000000000 0 0 8
69 0 0 1000000000 0 4 0
70 0 0 1000000000 0 0 8
71 0 0 1000000000 0 0 7
72 0 0 1000000000 0 0 2
73 0 0 1000000000 0 1 0
74 0 0 1000000000 0 0 9
75 0 0 1000000000 0 0 4
76 0 0 1000000000 0 0 3
77 0 0 1000000000 0 3 0
78 0 0 1000000000 0 0 9
79 0 0 1000000000 0 0 8
80 0 0 1000000000 0 0 5
81 0 0 1000000000 0 9 0
82 0 0 1000000000 0 0 9
83 0 0 1000000000 0 0 4
84 0 0 1000000000 0 0 9
85 0 0 1000000000 0 8 0
86 0 0 1000000000 0 0 6
87 0 0 1000000000 0 0 8
88 0 0 1000000000 0 0 7
89 0 0 1000000000 0 9 0
90 0 0 1000000000 0 0 3
91 0 0 1000000000 0 0 1
92 0 0 1000000000 0 0 8
93 0 0 1000000000 0 1 0
94 0 0 1000000000 0 0 2
95 0 0 1000000000 0 0 4
96 0 0 1000000000 0 0 3
97 0 0 1000000000 0 3 0
98 0 0 1000000000 0 0 7
99 0 0 1000000000 0 0 4
100 0 0 1000000000 0 0 6
101 0 0 1000000000 0 6 0
102 0 0 1000000000 0 0 2
103 0 0 1000000000 0 0 6
104 0 0 1000000000 0 0 7
105 0 0 1000000000 0 8 0
106 0 0 1000000000 0 0 6
107 0 0 1000000000 0 0 3
108 0 0 1000000000 0 0 10
109 0 0 1000000000 0 9 0
110 0 0 1000000000 0 0 5
111 0 0 1000000000 0 0 7
112 0 0 1000000000 0 0 10
113 0 0 1000000000 0 10 0
114 0 0 1000000000 0 0 10
115 0 0 1000000000 0 0 3
116 0 0 1000000000 0 0 10
117 0 0 1000000000 0 10 0
118 0 0 1000000000 0 0 1
119 0 0 1000000000 0 0 9
120 0 0 1000000000 0 0 2
121 0 0 1000000000 0 10 0
122 0 0 1000000000 0 0 1
123 0 0 1000000000 0 0 8
124 0 0 1000000000 0 0 7
125 0 0 1000000000 0 10 0
126 0 0 1000000000 0 0 2
127 0 0 1000000000 0 0 2
128 0 0 1000000000 0 0 7
129 0 0 1000000000 0 10 0
130 0 0 1000000000 0 0 2
131 0 0 1000000000 0 0 8
132 0 0 1000000000 0 0 8
133 0 0 1000000000 0 2 0
134 0 0 1000000000 0 0 5
135 0 0 1000000000 0 0 3
136 0 0 1000000000 0 0 10
137 0 0 1000000000 0 7 0
138 0 0 1000000000 0 0 1
139 0 0 1000000000 0 0 2
140 0 0 1000000000 0 0 9
141 0 0 1000000000 0 4 0
142 0 0 1000000000 0 0 8
143 0 0 1000000000 0 0 6
144 0 0 1000000000 0 0 1
145 0 0 1000000000 0 6 0
146 0 0 1000000000 0 0 7
147 0 0 1000000000 0 0 4
148 0 0 1000000000 0 0 10
149 0 0 1000000000 0 4 0
150 0 0 1000000000 0 0 10
151 0 0 1000000000 0 0 5
152 0 0 1000000000 0 0 10
153 0 0 1000000000 0 9 0
154 0 0 1000000000 0 0 2
155 0 0 1000000000 0 0 1
156 0 0 1000000000 0 0 3
157 0 0 1000000000 0 3 0
158 0 0 1000000000 0 0 6
159 0 0 1000000000 0 0 6
160 0 0 1000000000 0 0 2
161 0 0 1000000000 0 9 0
162 0 0 1000000000 0 0 9
163 0 0 1000000000 0 0 10
164 0 0 1000000000 0 0 4
165 0 0 1000000000 0 7 0
166 0 0 1000000000 0 0 9
167 0 0 1000000000 0 0 10
168 0 0 1000000000 0 0 2
169 0 0 1000000000 0 10 0
170 0 0 1000000000 0 0 6
171 0 0 1000000000 0 0 2
172 0 0 1000000000 0 0 10
173 0 0 1000000000 0 10 0
174 0 0 1000000000 0 0 10
175 0 0 1000000000 0 0 9
176 0 0 1000000000 0 0 9
177 0 0 1000000000 0 10 0
178 0 0 1000000000 0 0 3
179 0 0 1000000000 0 0 10
180 0 0 1000000000 0 0 1
181 0 0 1000000000 0 2 0
182 0 0 1000000000 0 0 7
183 0 0 1000000000 0 0 6
184 0 0 1000000000 0 0 4
185 0 0 1000000000 0 9 0
186 0 0 1000000000 0 0 9
187 0 0 1000000000 0 0 1
188 0 0 1000000000 0 0 9
189 0 0 1000000000 0 4 0
190 0 0 1000000000 0 0 4
191 0 0 1000000000 0 0 10
192 0 0 1000000000 0 0 1
193 0 0 1000000000 0 1 0
194 0 0 1000000000 0 0 1
195 0 0 1000000000 0 0 3
196 0 0 1000000000 0 0 9
197 0 0 1000000000 0 1 0
198 0 0 1000000000 0 0 7
199 0 0 1000000000 0 0 9
200 0 0 1000000000 0 0 6
201 0 0 1000000000 0 10 0
202 0 0 1000000000 0 0 4
203 0 0 1000000000 0 0 6
204 0 0 1000000000 0 0 8
205 0 0 1000000000 0 9 0
206 0 0 1000000000 0 0 3
207 0 0 1000000000 0 0 7
208 0 0 1000000000 0 0 7
209 0 0 1000000000 0 4 0
210 0 0 1000000000 0 0 9
211 0 0 1000000000 0 0 3
212 0 0 1000000000 0 0 7
213 0 0 1000000000 0 7 0
214 0 0 1000000000 0 0 4
215 0 0 1000000000 0 0 6
216 0 0 1000000000 0 0 6
217 0 0 1000000000 0 3 0
218 0 0 1000000000 0 0 6
219 0 0 1000000000 0 0 2
220 0 0 1000000000 0 0 7
221 0 0 1000000000 0 5 0
222 0 0 1000000000 0 0 1
223 0 0 1000000000 0 0 5
224 0 0 1000000000 0 0 6
225 0 0 1000000000 0 10 0
226 0 0 1000000000 0 0 10
227 0 0 1000000000 0 0 9
228 0 0 1000000000 0 0 4
229 0 0 1000000000 0 9 0
230 0 0 1000000000 0 0 1
231 0 0 1000000000 0 0 3
232 0 0 1000000000 0 0 4
233 0 0 1000000000 0 9 0
234 0 0 1000000000 0 0 7
235 0 0 1000000000 0 0 6
236 0 0 1000000000 0 0 5
237 0 0 1000000000 0 4 0
238 0 0 1000000000 0 0 1
239 0 0 1000000000 0 0 3
240 0 0 1000000000 0 0 7
241 0 0 1000000000 0 10 0
242 0 0 1000000000 0 0 8
243 0 0 1000000000 0 0 6
244 0 0 1000000000 0 0 9
245 0 0 1000000000 0 10 0
246 0 0 1000000000 0 0 3
247 0 0 1000000000 0 0 8
248 0 0 1000000000 0 0 8
249 0 0 1000000000 0 2 0
250 0 0 1000000000 0 0 4
251 0 0 1000000000 0 0 5
252 0 0 1000000000 0 0 10
253 0 0 1000000000 0 8 0
254 0 0 1000000000 0 0 8
255 0 0 1000000000 0 0 5
256 0 0 1000000000 0 0 10
257 0 0 1000000000 0 7 0
258 0 0 1000000000 0 0 8
259 0 0 1000000000 0 0 1
260 0 0 1000000000 0 0 2
261 0 0 1000000000 0 2 0
262 0 0 1000000000 0 0 3
263 0 0 1000000000 0 0 5
264 0 0 1000000000 0 0 9
265 0 0 1000000000 0 1 0
266 0 0 1000000000 0 0 8
267 0 0 1000000000 0 0 5
268 0 0 1000000000 0 0 2
269 0 0 1000000000 0 8 0
270 0 0 1000000000 0 0 6
271 0 0 1000000000 0 0 9
272 0 0 1000000000 0 0 3
273 0 0 1000000000 0 2 0
274 0 0 1000000000 0 0 3
275 0 0 1000000000 0 0 1
276 0 0 1000000000 0 0 10
277 0 0 1000000000 0 6 0
278 0 0 1000000000 0 0 7
279 0 0 1000000000 0 0 3
280 0 0 1000000000 0 0 4
